p cnf 22 22
-1 20 0 
-2 21 0 
-3 20 0 
-4 13 21 0 
-2 -5 22 0 
-6 22 0 
-1 21 0 
-4 13 20 0 
-7 -2 -8 22 0 
-7 -2 22 0 
-9 14 22 0 
-10 -11 12 18 22 0 
-12 11 18 21 0 
-13 4 22 0 
-2 22 0 
-14 9 20 0 
-11 12 18 22 0 
-15 -1 20 0 
-3 -1 21 0 
-9 14 21 0 
-16 -17 -18 11 12 -14 9 22 0 
-11 12 18 -19 22 0 
